 &bands
    prefix  = 'SCF'
    filband = 'bands.dat'
    outdir = './'
 /
